Route #1: 35 34 26 4 12
Route #2: 2 6 28 3 11 43 41 27
Route #3: 39 21 24 44 33 14
Route #4: 32 5 36 19 29 31
Route #5: 9 22 30 37 1 42 8
Route #6: 13 38 17 23 25 15 10
Route #7: 40 20 16 7 18
Cost 1146
Time 0.076997
